Version identifier: 22.1.0.0 | 2022-03-09 | 1a383f8ce
CPXPARAM_Threads                                 1
CPXPARAM_MIP_Strategy_VariableSelect             3
CPXPARAM_TimeLimit                               599.98792291799998
Tried aggregator 1 time.
MIP Presolve eliminated 15 rows and 0 columns.
MIP Presolve modified 3 coefficients.
Reduced MIP has 1516 rows, 6275 columns, and 80456 nonzeros.
Reduced MIP has 6275 binaries, 0 generals, 0 SOSs, and 0 indicators.
Presolve time = 0.06 sec. (30.65 ticks)
Probing time = 0.01 sec. (3.79 ticks)
Tried aggregator 1 time.
Detecting symmetries...
Reduced MIP has 1516 rows, 6275 columns, and 80456 nonzeros.
Reduced MIP has 6275 binaries, 0 generals, 0 SOSs, and 0 indicators.
Presolve time = 0.06 sec. (39.76 ticks)
Probing time = 0.01 sec. (3.79 ticks)
Clique table members: 251.
MIP emphasis: balance optimality and feasibility.
MIP search method: dynamic search.
Parallel mode: none, using 1 thread.
Root relaxation solution time = 0.11 sec. (85.44 ticks)

        Nodes                                         Cuts/
   Node  Left     Objective  IInf  Best Integer    Best Bound    ItCnt     Gap

      0     0        0.0000   451                      0.0000      995         
*     0+    0                            0.0000        0.0000             0.00%
      0     0        cutoff              0.0000        0.0000      995    0.00%
Elapsed time = 0.87 sec. (556.07 ticks, tree = 0.01 MB, solutions = 1)

Root node processing (before b&c):
  Real time             =    0.87 sec. (556.26 ticks)
Sequential b&c:
  Real time             =    0.00 sec. (0.00 ticks)
                          ------------
Total (root+branch&cut) =    0.87 sec. (556.26 ticks)
Version identifier: 22.1.0.0 | 2022-03-09 | 1a383f8ce
CPXPARAM_Threads                                 1
CPXPARAM_MIP_Strategy_VariableSelect             3
CPXPARAM_TimeLimit                               599.04178668600002
Tried aggregator 1 time.
MIP Presolve eliminated 15 rows and 0 columns.
MIP Presolve modified 3 coefficients.
Reduced MIP has 2266 rows, 9400 columns, and 120956 nonzeros.
Reduced MIP has 9400 binaries, 0 generals, 0 SOSs, and 0 indicators.
Presolve time = 0.06 sec. (45.62 ticks)
Probing time = 0.01 sec. (4.59 ticks)
Tried aggregator 1 time.
Detecting symmetries...
Reduced MIP has 2266 rows, 9400 columns, and 120956 nonzeros.
Reduced MIP has 9400 binaries, 0 generals, 0 SOSs, and 0 indicators.
Presolve time = 0.08 sec. (59.66 ticks)
Probing time = 0.01 sec. (4.59 ticks)
Clique table members: 376.
MIP emphasis: balance optimality and feasibility.
MIP search method: dynamic search.
Parallel mode: none, using 1 thread.
Root relaxation solution time = 0.55 sec. (537.88 ticks)

        Nodes                                         Cuts/
   Node  Left     Objective  IInf  Best Integer    Best Bound    ItCnt     Gap

      0     0        0.0000   997                      0.0000     2631         
*     0+    0                            0.0000        0.0000             0.00%
      0     0        cutoff              0.0000        0.0000     2631    0.00%
Elapsed time = 3.20 sec. (2955.61 ticks, tree = 0.01 MB, solutions = 1)

Root node processing (before b&c):
  Real time             =    3.20 sec. (2955.89 ticks)
Sequential b&c:
  Real time             =    0.00 sec. (0.00 ticks)
                          ------------
Total (root+branch&cut) =    3.20 sec. (2955.89 ticks)
Version identifier: 22.1.0.0 | 2022-03-09 | 1a383f8ce
CPXPARAM_Threads                                 1
CPXPARAM_MIP_Strategy_VariableSelect             3
CPXPARAM_TimeLimit                               595.77452612800005
Tried aggregator 1 time.
MIP Presolve eliminated 15 rows and 0 columns.
MIP Presolve modified 3 coefficients.
Reduced MIP has 2638 rows, 10950 columns, and 141044 nonzeros.
Reduced MIP has 10950 binaries, 0 generals, 0 SOSs, and 0 indicators.
Presolve time = 0.07 sec. (53.04 ticks)
Probing time = 0.01 sec. (4.98 ticks)
Tried aggregator 1 time.
Detecting symmetries...
Reduced MIP has 2638 rows, 10950 columns, and 141044 nonzeros.
Reduced MIP has 10950 binaries, 0 generals, 0 SOSs, and 0 indicators.
Presolve time = 0.09 sec. (69.50 ticks)
Probing time = 0.01 sec. (4.98 ticks)
Clique table members: 438.
MIP emphasis: balance optimality and feasibility.
MIP search method: dynamic search.
Parallel mode: none, using 1 thread.
Root relaxation solution time = 1.42 sec. (1413.83 ticks)

        Nodes                                         Cuts/
   Node  Left     Objective  IInf  Best Integer    Best Bound    ItCnt     Gap

      0     0        0.0000  1565                      0.0000     4284         
*     0+    0                            0.0000        0.0000             0.00%
      0     0        cutoff              0.0000        0.0000     4284    0.00%
Elapsed time = 10.58 sec. (10114.30 ticks, tree = 0.01 MB, solutions = 1)

Root node processing (before b&c):
  Real time             =   10.58 sec. (10114.62 ticks)
Sequential b&c:
  Real time             =    0.00 sec. (0.00 ticks)
                          ------------
Total (root+branch&cut) =   10.58 sec. (10114.62 ticks)
Version identifier: 22.1.0.0 | 2022-03-09 | 1a383f8ce
CPXPARAM_Threads                                 1
CPXPARAM_MIP_Strategy_VariableSelect             3
CPXPARAM_TimeLimit                               585.11866227200005
Tried aggregator 1 time.
MIP Presolve eliminated 15 rows and 0 columns.
MIP Presolve modified 3 coefficients.
Reduced MIP has 2824 rows, 11725 columns, and 151088 nonzeros.
Reduced MIP has 11725 binaries, 0 generals, 0 SOSs, and 0 indicators.
Presolve time = 0.08 sec. (56.74 ticks)
Probing time = 0.01 sec. (5.17 ticks)
Tried aggregator 1 time.
Detecting symmetries...
Reduced MIP has 2824 rows, 11725 columns, and 151088 nonzeros.
Reduced MIP has 11725 binaries, 0 generals, 0 SOSs, and 0 indicators.
Presolve time = 0.10 sec. (74.42 ticks)
Probing time = 0.01 sec. (5.17 ticks)
Clique table members: 469.
MIP emphasis: balance optimality and feasibility.
MIP search method: dynamic search.
Parallel mode: none, using 1 thread.
Root relaxation solution time = 2.41 sec. (2455.63 ticks)

        Nodes                                         Cuts/
   Node  Left     Objective  IInf  Best Integer    Best Bound    ItCnt     Gap

      0     0        0.0000  1798                      0.0000     6077         
      0     2        0.0000    14                      0.0000     6077         
Elapsed time = 42.58 sec. (43496.65 ticks, tree = 0.01 MB, solutions = 0)
      1     3        0.0000     8                      0.0000    12539         
      2     4        0.0000    77                      0.0000    17444         
      3     5        0.0000    20                      0.0000    19298         
      4     6        0.0000    20                      0.0000    19567         
      5     7        0.0000    16                      0.0000    21910         
      6     8        0.0000   115                      0.0000    26663         
      7     9        0.0000    16                      0.0000    28322         
*     8     1      integral     0        0.0000        0.0000    28525    0.00%
      8     0        0.0000     0        0.0000        0.0000    28525    0.00%

Root node processing (before b&c):
  Real time             =   42.51 sec. (43438.39 ticks)
Sequential b&c:
  Real time             =   15.19 sec. (15933.91 ticks)
                          ------------
Total (root+branch&cut) =   57.70 sec. (59372.30 ticks)
Version identifier: 22.1.0.0 | 2022-03-09 | 1a383f8ce
CPXPARAM_Threads                                 1
CPXPARAM_MIP_Strategy_VariableSelect             3
CPXPARAM_TimeLimit                               527.33503611000003
Tried aggregator 1 time.
MIP Presolve eliminated 15 rows and 0 columns.
MIP Presolve modified 3 coefficients.
Reduced MIP has 2920 rows, 12125 columns, and 156272 nonzeros.
Reduced MIP has 12125 binaries, 0 generals, 0 SOSs, and 0 indicators.
Presolve time = 0.08 sec. (58.65 ticks)
Probing time = 0.01 sec. (5.27 ticks)
Tried aggregator 1 time.
Detecting symmetries...
Reduced MIP has 2920 rows, 12125 columns, and 156272 nonzeros.
Reduced MIP has 12125 binaries, 0 generals, 0 SOSs, and 0 indicators.
Presolve time = 0.10 sec. (76.95 ticks)
Probing time = 0.01 sec. (5.27 ticks)
Clique table members: 485.
MIP emphasis: balance optimality and feasibility.
MIP search method: dynamic search.
Parallel mode: none, using 1 thread.
Root relaxation solution time = 4.83 sec. (5077.19 ticks)

        Nodes                                         Cuts/
   Node  Left     Objective  IInf  Best Integer    Best Bound    ItCnt     Gap

      0     0        0.0000  2007                      0.0000     9395         
*     0+    0                            0.0000        0.0000             0.00%
      0     0        cutoff              0.0000        0.0000     9395    0.00%
Elapsed time = 49.30 sec. (55276.88 ticks, tree = 0.01 MB, solutions = 1)

Root node processing (before b&c):
  Real time             =   49.30 sec. (55277.24 ticks)
Sequential b&c:
  Real time             =    0.00 sec. (0.00 ticks)
                          ------------
Total (root+branch&cut) =   49.30 sec. (55277.24 ticks)
Version identifier: 22.1.0.0 | 2022-03-09 | 1a383f8ce
CPXPARAM_Threads                                 1
CPXPARAM_MIP_Strategy_VariableSelect             3
CPXPARAM_TimeLimit                               477.950014624
Tried aggregator 1 time.
MIP Presolve eliminated 15 rows and 0 columns.
MIP Presolve modified 3 coefficients.
Reduced MIP has 2968 rows, 12325 columns, and 158864 nonzeros.
Reduced MIP has 12325 binaries, 0 generals, 0 SOSs, and 0 indicators.
Presolve time = 0.08 sec. (59.61 ticks)
Probing time = 0.01 sec. (5.32 ticks)
Tried aggregator 1 time.
Detecting symmetries...
Reduced MIP has 2968 rows, 12325 columns, and 158864 nonzeros.
Reduced MIP has 12325 binaries, 0 generals, 0 SOSs, and 0 indicators.
Presolve time = 0.11 sec. (78.24 ticks)
Probing time = 0.01 sec. (5.32 ticks)
Clique table members: 493.
MIP emphasis: balance optimality and feasibility.
MIP search method: dynamic search.
Parallel mode: none, using 1 thread.
Root relaxation solution time = 5.35 sec. (5704.05 ticks)

        Nodes                                         Cuts/
   Node  Left     Objective  IInf  Best Integer    Best Bound    ItCnt     Gap

      0     0        0.0000  2223                      0.0000     9585         
*     0+    0                            0.0000        0.0000             0.00%
      0     0        cutoff              0.0000        0.0000     9585    0.00%
Elapsed time = 51.58 sec. (56105.69 ticks, tree = 0.01 MB, solutions = 1)

Root node processing (before b&c):
  Real time             =   51.58 sec. (56106.05 ticks)
Sequential b&c:
  Real time             =    0.00 sec. (0.00 ticks)
                          ------------
Total (root+branch&cut) =   51.58 sec. (56106.05 ticks)
Version identifier: 22.1.0.0 | 2022-03-09 | 1a383f8ce
CPXPARAM_Threads                                 1
CPXPARAM_MIP_Strategy_VariableSelect             3
CPXPARAM_TimeLimit                               426.281171035
Tried aggregator 1 time.
MIP Presolve eliminated 15 rows and 0 columns.
MIP Presolve modified 3 coefficients.
Reduced MIP has 2992 rows, 12425 columns, and 160160 nonzeros.
Reduced MIP has 12425 binaries, 0 generals, 0 SOSs, and 0 indicators.
Presolve time = 0.08 sec. (60.09 ticks)
Probing time = 0.01 sec. (5.35 ticks)
Tried aggregator 1 time.
Detecting symmetries...
Reduced MIP has 2992 rows, 12425 columns, and 160160 nonzeros.
Reduced MIP has 12425 binaries, 0 generals, 0 SOSs, and 0 indicators.
Presolve time = 0.11 sec. (78.88 ticks)
Probing time = 0.01 sec. (5.35 ticks)
Clique table members: 497.
MIP emphasis: balance optimality and feasibility.
MIP search method: dynamic search.
Parallel mode: none, using 1 thread.
Root relaxation solution time = 5.60 sec. (5920.77 ticks)

        Nodes                                         Cuts/
   Node  Left     Objective  IInf  Best Integer    Best Bound    ItCnt     Gap

      0     0        0.0000  2268                      0.0000     9808         
*     0+    0                            0.0000        0.0000             0.00%
      0     0        cutoff              0.0000        0.0000     9808    0.00%
Elapsed time = 62.19 sec. (67964.78 ticks, tree = 0.01 MB, solutions = 1)

Root node processing (before b&c):
  Real time             =   62.19 sec. (67965.15 ticks)
Sequential b&c:
  Real time             =    0.00 sec. (0.00 ticks)
                          ------------
Total (root+branch&cut) =   62.19 sec. (67965.15 ticks)
Version identifier: 22.1.0.0 | 2022-03-09 | 1a383f8ce
CPXPARAM_Threads                                 1
CPXPARAM_MIP_Strategy_VariableSelect             3
CPXPARAM_TimeLimit                               364.00664119500004
Tried aggregator 1 time.
MIP Presolve eliminated 15 rows and 0 columns.
MIP Presolve modified 3 coefficients.
Reduced MIP has 3004 rows, 12475 columns, and 160808 nonzeros.
Reduced MIP has 12475 binaries, 0 generals, 0 SOSs, and 0 indicators.
Presolve time = 0.08 sec. (60.32 ticks)
Probing time = 0.01 sec. (5.36 ticks)
Tried aggregator 1 time.
Detecting symmetries...
Reduced MIP has 3004 rows, 12475 columns, and 160808 nonzeros.
Reduced MIP has 12475 binaries, 0 generals, 0 SOSs, and 0 indicators.
Presolve time = 0.11 sec. (79.18 ticks)
Probing time = 0.01 sec. (5.36 ticks)
Clique table members: 499.
MIP emphasis: balance optimality and feasibility.
MIP search method: dynamic search.
Parallel mode: none, using 1 thread.
Root relaxation solution time = 6.54 sec. (6957.48 ticks)

        Nodes                                         Cuts/
   Node  Left     Objective  IInf  Best Integer    Best Bound    ItCnt     Gap

      0     0        0.0000  2299                      0.0000    10841         
*     0+    0                            0.0000        0.0000             0.00%
      0     0        cutoff              0.0000        0.0000    10841    0.00%
Elapsed time = 49.49 sec. (51946.63 ticks, tree = 0.01 MB, solutions = 1)

Root node processing (before b&c):
  Real time             =   49.50 sec. (51947.00 ticks)
Sequential b&c:
  Real time             =    0.00 sec. (0.00 ticks)
                          ------------
Total (root+branch&cut) =   49.50 sec. (51947.00 ticks)
Version identifier: 22.1.0.0 | 2022-03-09 | 1a383f8ce
CPXPARAM_Threads                                 1
CPXPARAM_MIP_Strategy_VariableSelect             3
CPXPARAM_TimeLimit                               314.42401172000001
Tried aggregator 1 time.
MIP Presolve eliminated 15 rows and 0 columns.
MIP Presolve modified 3 coefficients.
Reduced MIP has 3010 rows, 12500 columns, and 161132 nonzeros.
Reduced MIP has 12500 binaries, 0 generals, 0 SOSs, and 0 indicators.
Presolve time = 0.08 sec. (60.44 ticks)
Probing time = 0.01 sec. (5.37 ticks)
Tried aggregator 1 time.
Detecting symmetries...
Reduced MIP has 3010 rows, 12500 columns, and 161132 nonzeros.
Reduced MIP has 12500 binaries, 0 generals, 0 SOSs, and 0 indicators.
Presolve time = 0.11 sec. (79.36 ticks)
Probing time = 0.01 sec. (5.37 ticks)
Clique table members: 500.
MIP emphasis: balance optimality and feasibility.
MIP search method: dynamic search.
Parallel mode: none, using 1 thread.
Root relaxation solution time = 7.13 sec. (7682.69 ticks)

        Nodes                                         Cuts/
   Node  Left     Objective  IInf  Best Integer    Best Bound    ItCnt     Gap

      0     0        0.0000  2312                      0.0000    11410         
*     0+    0                            0.0000        0.0000             0.00%
      0     0        cutoff              0.0000        0.0000    11410    0.00%
Elapsed time = 49.26 sec. (52200.40 ticks, tree = 0.01 MB, solutions = 1)

Root node processing (before b&c):
  Real time             =   49.26 sec. (52200.77 ticks)
Sequential b&c:
  Real time             =    0.00 sec. (0.00 ticks)
                          ------------
Total (root+branch&cut) =   49.26 sec. (52200.77 ticks)
Primal:	500
Dual:	500
Status:	Optimal
Time:	334.911
Sequence:
	10
	21
	13
	9
	18
	21
	16
	7
	4
	24
	11
	15
	7
	12
	5
	10
	20
	16
	3
	23
	19
	2
	23
	8
	24
	1
	7
	9
	21
	0
	19
	20
	3
	15
	18
	2
	15
	3
	1
	17
	19
	21
	12
	16
	4
	21
	8
	12
	21
	24
	7
	1
	9
	21
	9
	1
	10
	9
	1
	3
	19
	21
	12
	19
	4
	7
	16
	23
	10
	17
	6
	11
	14
	11
	18
	22
	21
	12
	19
	23
	2
	19
	4
	19
	12
	6
	16
	18
	22
	18
	2
	15
	3
	1
	24
	6
	19
	12
	21
	24
	6
	2
	24
	21
	0
	8
	6
	0
	19
	4
	11
	22
	18
	2
	5
	10
	7
	5
	7
	0
	15
	7
	0
	22
	0
	7
	15
	18
	2
	14
	10
	10
	5
	2
	12
	15
	11
	18
	22
	3
	1
	24
	10
	20
	9
	21
	18
	16
	14
	2
	1
	24
	2
	23
	8
	11
	23
	8
	0
	6
	19
	24
	20
	18
	8
	1
	18
	8
	23
	2
	19
	23
	7
	5
	7
	10
	5
	7
	18
	22
	11
	18
	13
	18
	7
	15
	12
	16
	23
	2
	16
	4
	10
	9
	1
	10
	9
	21
	17
	10
	21
	9
	1
	3
	15
	2
	18
	15
	3
	20
	19
	18
	21
	17
	7
	21
	24
	11
	4
	8
	11
	23
	19
	3
	20
	19
	18
	20
	9
	15
	2
	23
	8
	0
	15
	2
	23
	8
	0
	21
	8
	23
	2
	24
	21
	7
	17
	1
	18
	19
	6
	12
	15
	24
	10
	20
	14
	11
	18
	22
	10
	12
	15
	18
	6
	16
	4
	10
	24
	20
	10
	9
	21
	12
	15
	7
	0
	22
	18
	10
	13
	0
	20
	24
	1
	7
	24
	20
	18
	19
	20
	3
	15
	0
	19
	6
	3
	16
	23
	2
	8
	23
	16
	18
	6
	8
	0
	21
	9
	7
	1
	9
	10
	4
	16
	11
	4
	22
	18
	2
	15
	0
	7
	14
	10
	1
	17
	10
	4
	19
	11
	14
	2
	18
	15
	3
	1
	8
	18
	21
	17
	21
	7
	24
	1
	3
	16
	6
	18
	16
	4
	10
	13
	23
	10
	9
	1
	2
	24
	21
	9
	11
	6
	24
	21
	17
	21
	7
	5
	21
	3
	16
	6
	0
	19
	4
	11
	22
	18
	11
	14
	10
	7
	5
	10
	14
	11
	7
	5
	7
	23
	16
	8
	23
	7
	5
	10
	7
	5
	7
	18
	15
	2
	18
	22
	18
	1
	8
	3
	21
	5
	10
	6
	9
	1
	18
	8
	20
	18
	19
	23
	2
	22
	18
	20
	24
	1
	7
	9
	1
	18
	8
	6
	0
	15
	0
	6
	9
	10
	1
	9
	10
	14
	11
	10
	14
	2
	18
	15
	2
	23
	8
	23
	11
	8
	23
	2
	24
	21
	7
	5
	7
	18
	15
	2
	18
	22
	18
	16
	6
	18
	9
	1
	16
	7
	23
	9
	11
	15
	2
	23
	9
	11
	6
	19
	12
	23
	19
	2
	21
	9
	23
	11
	8
	1
	9
	23
	10
	13
	10
